(set-logic QF_LRA)
(declare-fun X0 () Real )
(declare-fun Y0 () Real )
(declare-fun X1 () Real )
(declare-fun Y1 () Real )
(declare-fun X2 () Real )
(declare-fun Y2 () Real )
(declare-fun X3 () Real )
(declare-fun Y3 () Real )
(declare-fun X4 () Real )
(declare-fun Y4 () Real )
(declare-fun X5 () Real )
(declare-fun Y5 () Real )
(declare-fun X6 () Real )
(declare-fun Y6 () Real )
(declare-fun X7 () Real )
(declare-fun Y7 () Real )
(declare-fun X8 () Real )
(declare-fun Y8 () Real )
(declare-fun X9 () Real )
(declare-fun Y9 () Real )
(declare-fun X10 () Real )
(declare-fun Y10 () Real )
(declare-fun X11 () Real )
(declare-fun Y11 () Real )
(declare-fun Z () Real )
(assert ( and  
( or ( <= ( + X0 27 ) X1 )  ( <= ( + X1 90 ) X0 )  ( <= ( + Y0 30 ) Y1 )  ( <= ( + Y1 32 ) Y0 )  )
( or ( <= ( + X0 27 ) X2 )  ( <= ( + X2 86 ) X0 )  ( <= ( + Y0 30 ) Y2 )  ( <= ( + Y2 80 ) Y0 )  )
( or ( <= ( + X0 27 ) X3 )  ( <= ( + X3 60 ) X0 )  ( <= ( + Y0 30 ) Y3 )  ( <= ( + Y3 91 ) Y0 )  )
( or ( <= ( + X0 27 ) X4 )  ( <= ( + X4 23 ) X0 )  ( <= ( + Y0 30 ) Y4 )  ( <= ( + Y4 94 ) Y0 )  )
( or ( <= ( + X0 27 ) X5 )  ( <= ( + X5 99 ) X0 )  ( <= ( + Y0 30 ) Y5 )  ( <= ( + Y5 49 ) Y0 )  )
( or ( <= ( + X0 27 ) X6 )  ( <= ( + X6 53 ) X0 )  ( <= ( + Y0 30 ) Y6 )  ( <= ( + Y6 74 ) Y0 )  )
( or ( <= ( + X0 27 ) X7 )  ( <= ( + X7 39 ) X0 )  ( <= ( + Y0 30 ) Y7 )  ( <= ( + Y7 98 ) Y0 )  )
( or ( <= ( + X0 27 ) X8 )  ( <= ( + X8 74 ) X0 )  ( <= ( + Y0 30 ) Y8 )  ( <= ( + Y8 43 ) Y0 )  )
( or ( <= ( + X0 27 ) X9 )  ( <= ( + X9 93 ) X0 )  ( <= ( + Y0 30 ) Y9 )  ( <= ( + Y9 95 ) Y0 )  )
( or ( <= ( + X0 27 ) X10 )  ( <= ( + X10 87 ) X0 )  ( <= ( + Y0 30 ) Y10 )  ( <= ( + Y10 9 ) Y0 )  )
( or ( <= ( + X0 27 ) X11 )  ( <= ( + X11 80 ) X0 )  ( <= ( + Y0 30 ) Y11 )  ( <= ( + Y11 35 ) Y0 )  )
( or ( <= ( + X1 90 ) X2 )  ( <= ( + X2 86 ) X1 )  ( <= ( + Y1 32 ) Y2 )  ( <= ( + Y2 80 ) Y1 )  )
( or ( <= ( + X1 90 ) X3 )  ( <= ( + X3 60 ) X1 )  ( <= ( + Y1 32 ) Y3 )  ( <= ( + Y3 91 ) Y1 )  )
( or ( <= ( + X1 90 ) X4 )  ( <= ( + X4 23 ) X1 )  ( <= ( + Y1 32 ) Y4 )  ( <= ( + Y4 94 ) Y1 )  )
( or ( <= ( + X1 90 ) X5 )  ( <= ( + X5 99 ) X1 )  ( <= ( + Y1 32 ) Y5 )  ( <= ( + Y5 49 ) Y1 )  )
( or ( <= ( + X1 90 ) X6 )  ( <= ( + X6 53 ) X1 )  ( <= ( + Y1 32 ) Y6 )  ( <= ( + Y6 74 ) Y1 )  )
( or ( <= ( + X1 90 ) X7 )  ( <= ( + X7 39 ) X1 )  ( <= ( + Y1 32 ) Y7 )  ( <= ( + Y7 98 ) Y1 )  )
( or ( <= ( + X1 90 ) X8 )  ( <= ( + X8 74 ) X1 )  ( <= ( + Y1 32 ) Y8 )  ( <= ( + Y8 43 ) Y1 )  )
( or ( <= ( + X1 90 ) X9 )  ( <= ( + X9 93 ) X1 )  ( <= ( + Y1 32 ) Y9 )  ( <= ( + Y9 95 ) Y1 )  )
( or ( <= ( + X1 90 ) X10 )  ( <= ( + X10 87 ) X1 )  ( <= ( + Y1 32 ) Y10 )  ( <= ( + Y10 9 ) Y1 )  )
( or ( <= ( + X1 90 ) X11 )  ( <= ( + X11 80 ) X1 )  ( <= ( + Y1 32 ) Y11 )  ( <= ( + Y11 35 ) Y1 )  )
( or ( <= ( + X2 86 ) X3 )  ( <= ( + X3 60 ) X2 )  ( <= ( + Y2 80 ) Y3 )  ( <= ( + Y3 91 ) Y2 )  )
( or ( <= ( + X2 86 ) X4 )  ( <= ( + X4 23 ) X2 )  ( <= ( + Y2 80 ) Y4 )  ( <= ( + Y4 94 ) Y2 )  )
( or ( <= ( + X2 86 ) X5 )  ( <= ( + X5 99 ) X2 )  ( <= ( + Y2 80 ) Y5 )  ( <= ( + Y5 49 ) Y2 )  )
( or ( <= ( + X2 86 ) X6 )  ( <= ( + X6 53 ) X2 )  ( <= ( + Y2 80 ) Y6 )  ( <= ( + Y6 74 ) Y2 )  )
( or ( <= ( + X2 86 ) X7 )  ( <= ( + X7 39 ) X2 )  ( <= ( + Y2 80 ) Y7 )  ( <= ( + Y7 98 ) Y2 )  )
( or ( <= ( + X2 86 ) X8 )  ( <= ( + X8 74 ) X2 )  ( <= ( + Y2 80 ) Y8 )  ( <= ( + Y8 43 ) Y2 )  )
( or ( <= ( + X2 86 ) X9 )  ( <= ( + X9 93 ) X2 )  ( <= ( + Y2 80 ) Y9 )  ( <= ( + Y9 95 ) Y2 )  )
( or ( <= ( + X2 86 ) X10 )  ( <= ( + X10 87 ) X2 )  ( <= ( + Y2 80 ) Y10 )  ( <= ( + Y10 9 ) Y2 )  )
( or ( <= ( + X2 86 ) X11 )  ( <= ( + X11 80 ) X2 )  ( <= ( + Y2 80 ) Y11 )  ( <= ( + Y11 35 ) Y2 )  )
( or ( <= ( + X3 60 ) X4 )  ( <= ( + X4 23 ) X3 )  ( <= ( + Y3 91 ) Y4 )  ( <= ( + Y4 94 ) Y3 )  )
( or ( <= ( + X3 60 ) X5 )  ( <= ( + X5 99 ) X3 )  ( <= ( + Y3 91 ) Y5 )  ( <= ( + Y5 49 ) Y3 )  )
( or ( <= ( + X3 60 ) X6 )  ( <= ( + X6 53 ) X3 )  ( <= ( + Y3 91 ) Y6 )  ( <= ( + Y6 74 ) Y3 )  )
( or ( <= ( + X3 60 ) X7 )  ( <= ( + X7 39 ) X3 )  ( <= ( + Y3 91 ) Y7 )  ( <= ( + Y7 98 ) Y3 )  )
( or ( <= ( + X3 60 ) X8 )  ( <= ( + X8 74 ) X3 )  ( <= ( + Y3 91 ) Y8 )  ( <= ( + Y8 43 ) Y3 )  )
( or ( <= ( + X3 60 ) X9 )  ( <= ( + X9 93 ) X3 )  ( <= ( + Y3 91 ) Y9 )  ( <= ( + Y9 95 ) Y3 )  )
( or ( <= ( + X3 60 ) X10 )  ( <= ( + X10 87 ) X3 )  ( <= ( + Y3 91 ) Y10 )  ( <= ( + Y10 9 ) Y3 )  )
( or ( <= ( + X3 60 ) X11 )  ( <= ( + X11 80 ) X3 )  ( <= ( + Y3 91 ) Y11 )  ( <= ( + Y11 35 ) Y3 )  )
( or ( <= ( + X4 23 ) X5 )  ( <= ( + X5 99 ) X4 )  ( <= ( + Y4 94 ) Y5 )  ( <= ( + Y5 49 ) Y4 )  )
( or ( <= ( + X4 23 ) X6 )  ( <= ( + X6 53 ) X4 )  ( <= ( + Y4 94 ) Y6 )  ( <= ( + Y6 74 ) Y4 )  )
( or ( <= ( + X4 23 ) X7 )  ( <= ( + X7 39 ) X4 )  ( <= ( + Y4 94 ) Y7 )  ( <= ( + Y7 98 ) Y4 )  )
( or ( <= ( + X4 23 ) X8 )  ( <= ( + X8 74 ) X4 )  ( <= ( + Y4 94 ) Y8 )  ( <= ( + Y8 43 ) Y4 )  )
( or ( <= ( + X4 23 ) X9 )  ( <= ( + X9 93 ) X4 )  ( <= ( + Y4 94 ) Y9 )  ( <= ( + Y9 95 ) Y4 )  )
( or ( <= ( + X4 23 ) X10 )  ( <= ( + X10 87 ) X4 )  ( <= ( + Y4 94 ) Y10 )  ( <= ( + Y10 9 ) Y4 )  )
( or ( <= ( + X4 23 ) X11 )  ( <= ( + X11 80 ) X4 )  ( <= ( + Y4 94 ) Y11 )  ( <= ( + Y11 35 ) Y4 )  )
( or ( <= ( + X5 99 ) X6 )  ( <= ( + X6 53 ) X5 )  ( <= ( + Y5 49 ) Y6 )  ( <= ( + Y6 74 ) Y5 )  )
( or ( <= ( + X5 99 ) X7 )  ( <= ( + X7 39 ) X5 )  ( <= ( + Y5 49 ) Y7 )  ( <= ( + Y7 98 ) Y5 )  )
( or ( <= ( + X5 99 ) X8 )  ( <= ( + X8 74 ) X5 )  ( <= ( + Y5 49 ) Y8 )  ( <= ( + Y8 43 ) Y5 )  )
( or ( <= ( + X5 99 ) X9 )  ( <= ( + X9 93 ) X5 )  ( <= ( + Y5 49 ) Y9 )  ( <= ( + Y9 95 ) Y5 )  )
( or ( <= ( + X5 99 ) X10 )  ( <= ( + X10 87 ) X5 )  ( <= ( + Y5 49 ) Y10 )  ( <= ( + Y10 9 ) Y5 )  )
( or ( <= ( + X5 99 ) X11 )  ( <= ( + X11 80 ) X5 )  ( <= ( + Y5 49 ) Y11 )  ( <= ( + Y11 35 ) Y5 )  )
( or ( <= ( + X6 53 ) X7 )  ( <= ( + X7 39 ) X6 )  ( <= ( + Y6 74 ) Y7 )  ( <= ( + Y7 98 ) Y6 )  )
( or ( <= ( + X6 53 ) X8 )  ( <= ( + X8 74 ) X6 )  ( <= ( + Y6 74 ) Y8 )  ( <= ( + Y8 43 ) Y6 )  )
( or ( <= ( + X6 53 ) X9 )  ( <= ( + X9 93 ) X6 )  ( <= ( + Y6 74 ) Y9 )  ( <= ( + Y9 95 ) Y6 )  )
( or ( <= ( + X6 53 ) X10 )  ( <= ( + X10 87 ) X6 )  ( <= ( + Y6 74 ) Y10 )  ( <= ( + Y10 9 ) Y6 )  )
( or ( <= ( + X6 53 ) X11 )  ( <= ( + X11 80 ) X6 )  ( <= ( + Y6 74 ) Y11 )  ( <= ( + Y11 35 ) Y6 )  )
( or ( <= ( + X7 39 ) X8 )  ( <= ( + X8 74 ) X7 )  ( <= ( + Y7 98 ) Y8 )  ( <= ( + Y8 43 ) Y7 )  )
( or ( <= ( + X7 39 ) X9 )  ( <= ( + X9 93 ) X7 )  ( <= ( + Y7 98 ) Y9 )  ( <= ( + Y9 95 ) Y7 )  )
( or ( <= ( + X7 39 ) X10 )  ( <= ( + X10 87 ) X7 )  ( <= ( + Y7 98 ) Y10 )  ( <= ( + Y10 9 ) Y7 )  )
( or ( <= ( + X7 39 ) X11 )  ( <= ( + X11 80 ) X7 )  ( <= ( + Y7 98 ) Y11 )  ( <= ( + Y11 35 ) Y7 )  )
( or ( <= ( + X8 74 ) X9 )  ( <= ( + X9 93 ) X8 )  ( <= ( + Y8 43 ) Y9 )  ( <= ( + Y9 95 ) Y8 )  )
( or ( <= ( + X8 74 ) X10 )  ( <= ( + X10 87 ) X8 )  ( <= ( + Y8 43 ) Y10 )  ( <= ( + Y10 9 ) Y8 )  )
( or ( <= ( + X8 74 ) X11 )  ( <= ( + X11 80 ) X8 )  ( <= ( + Y8 43 ) Y11 )  ( <= ( + Y11 35 ) Y8 )  )
( or ( <= ( + X9 93 ) X10 )  ( <= ( + X10 87 ) X9 )  ( <= ( + Y9 95 ) Y10 )  ( <= ( + Y10 9 ) Y9 )  )
( or ( <= ( + X9 93 ) X11 )  ( <= ( + X11 80 ) X9 )  ( <= ( + Y9 95 ) Y11 )  ( <= ( + Y11 35 ) Y9 )  )
( or ( <= ( + X10 87 ) X11 )  ( <= ( + X11 80 ) X10 )  ( <= ( + Y10 9 ) Y11 )  ( <= ( + Y11 35 ) Y10 )  )
( >= X0 0)
( <= ( + X0 27) Z)
( >= Y0 0)
( <= ( + Y0 30 ) 173)
( >= X1 0)
( <= ( + X1 90) Z)
( >= Y1 0)
( <= ( + Y1 32 ) 173)
( >= X2 0)
( <= ( + X2 86) Z)
( >= Y2 0)
( <= ( + Y2 80 ) 173)
( >= X3 0)
( <= ( + X3 60) Z)
( >= Y3 0)
( <= ( + Y3 91 ) 173)
( >= X4 0)
( <= ( + X4 23) Z)
( >= Y4 0)
( <= ( + Y4 94 ) 173)
( >= X5 0)
( <= ( + X5 99) Z)
( >= Y5 0)
( <= ( + Y5 49 ) 173)
( >= X6 0)
( <= ( + X6 53) Z)
( >= Y6 0)
( <= ( + Y6 74 ) 173)
( >= X7 0)
( <= ( + X7 39) Z)
( >= Y7 0)
( <= ( + Y7 98 ) 173)
( >= X8 0)
( <= ( + X8 74) Z)
( >= Y8 0)
( <= ( + Y8 43 ) 173)
( >= X9 0)
( <= ( + X9 93) Z)
( >= Y9 0)
( <= ( + Y9 95 ) 173)
( >= X10 0)
( <= ( + X10 87) Z)
( >= Y10 0)
( <= ( + Y10 9 ) 173)
( >= X11 0)
( <= ( + X11 80) Z)
( >= Y11 0)
( <= ( + Y11 35 ) 173)
) )
(minimize Z)
(check-sat)
